#                                                                                    
# Keywords:                                                                          
#                                                                                    
opti conv shellonly                                                                  
#                                                                                    
# Options:                                                                           
#                                                                                    
title                                                                                
FeSbO4                                                                               
end                                                                                  
cell                                                                                 
    4.6365      4.6365      6.1484     90.0000     90.0000     90.0000
 frac
Fe   core    0.0000000    0.0000000    0.0000000
Sb   core    0.0000000    0.0000000    0.5000000
Fe   core    0.5000000    0.5000000    0.2500000
Sb   core    0.5000000    0.5000000    0.7500000
O    core    0.3055000    0.3055000    0.0000000
O    shel    0.3055000    0.3055000    0.0000000
O    core    0.3055000    0.3055000    0.5000000
O    shel    0.3055000    0.3055000    0.5000000
O    core    0.6945000    0.6945000    0.0000000
O    shel    0.6945000    0.6945000    0.0000000
O    core    0.6945000    0.6945000    0.5000000
O    shel    0.6945000    0.6945000    0.5000000
O    core    0.1945000    0.8055000    0.2500000
O    shel    0.1945000    0.8055000    0.2500000
O    core    0.1945000    0.8055000    0.7500000
O    shel    0.1945000    0.8055000    0.7500000
O    core    0.8055000    0.1945000    0.2500000
O    shel    0.8055000    0.1945000    0.2500000
O    core    0.8055000    0.1945000    0.7500000
O    shel    0.8055000    0.1945000    0.7500000
species                                                                              
Fe   core 3.00000000 1.00000 0.00000                                                 
Sb   core 5.00000000 1.00000 0.00000                                                 
O    core 1.00000000 1.00000 0.00000                                                 
O    shel -3.0000000 1.00000 0.00000                                                 
spring                                                                               
O      54.76                                                                         
buck                                                                                 
O     shel O     shel  22764.000  0.149000 27.879  0.000 16.000                      
buck                                                                                 
Fe    core O     shel  1677.94    0.3084   .00000  0.000 16.000                      
buck                                                                                 
Sb    core O     shel 1241.628    0.3650   .00000  0.000 16.000                      
cuts 0.800000                                                                        
output xtl c0002   
output arc c0002   
