#                                                                                    
# Keywords:                                                                          
#                                                                                    
opti conp qok                                                                        
#                                                                                    
# Options:                                                                           
#                                                                                    
title                                                                                
 cubic perovskite LaCoO3: 2 Sr/La substitutions in a 2x2x2 supercell                 
end                                                                                  
cell                                                                                 
    7.0000      7.0000      7.0000     90.0000     90.0000     90.0000
 frac
Sr   core    0.0000000    0.0000000    0.0000000
Sr   core    0.0000000    0.0000000    0.5000000
La   core    0.0000000    0.5000000    0.0000000
La   core    0.0000000    0.5000000    0.5000000
La   core    0.5000000    0.0000000    0.0000000
La   core    0.5000000    0.0000000    0.5000000
La   core    0.5000000    0.5000000    0.0000000
La   core    0.5000000    0.5000000    0.5000000
Al   core    0.2500000    0.2500000    0.2500000
Al   core    0.2500000    0.2500000    0.7500000
Al   core    0.2500000    0.7500000    0.2500000
Al   core    0.2500000    0.7500000    0.7500000
Al   core    0.7500000    0.2500000    0.2500000
Al   core    0.7500000    0.2500000    0.7500000
Al   core    0.7500000    0.7500000    0.2500000
Al   core    0.7500000    0.7500000    0.7500000
O    core    0.2500000    0.2500000    0.0000000
O    shel    0.2500000    0.2500000    0.0000000
O    core    0.2500000    0.2500000    0.5000000
O    shel    0.2500000    0.2500000    0.5000000
O    core    0.2500000    0.7500000    0.0000000
O    shel    0.2500000    0.7500000    0.0000000
O    core    0.2500000    0.7500000    0.5000000
O    shel    0.2500000    0.7500000    0.5000000
O    core    0.7500000    0.2500000    0.0000000
O    shel    0.7500000    0.2500000    0.0000000
O    core    0.7500000    0.2500000    0.5000000
O    shel    0.7500000    0.2500000    0.5000000
O    core    0.7500000    0.7500000    0.0000000
O    shel    0.7500000    0.7500000    0.0000000
O    core    0.7500000    0.7500000    0.5000000
O    shel    0.7500000    0.7500000    0.5000000
O    core    0.0000000    0.2500000    0.2500000
O    shel    0.0000000    0.2500000    0.2500000
O    core    0.0000000    0.2500000    0.7500000
O    shel    0.0000000    0.2500000    0.7500000
O    core    0.0000000    0.7500000    0.2500000
O    shel    0.0000000    0.7500000    0.2500000
O    core    0.0000000    0.7500000    0.7500000
O    shel    0.0000000    0.7500000    0.7500000
O    core    0.5000000    0.2500000    0.2500000
O    shel    0.5000000    0.2500000    0.2500000
O    core    0.5000000    0.2500000    0.7500000
O    shel    0.5000000    0.2500000    0.7500000
O    core    0.5000000    0.7500000    0.2500000
O    shel    0.5000000    0.7500000    0.2500000
O    core    0.5000000    0.7500000    0.7500000
O    shel    0.5000000    0.7500000    0.7500000
O    core    0.2500000    0.0000000    0.2500000
O    shel    0.2500000    0.0000000    0.2500000
O    core    0.2500000    0.0000000    0.7500000
O    shel    0.2500000    0.0000000    0.7500000
O    core    0.2500000    0.5000000    0.2500000
O    shel    0.2500000    0.5000000    0.2500000
O    core    0.2500000    0.5000000    0.7500000
O    shel    0.2500000    0.5000000    0.7500000
O    core    0.7500000    0.0000000    0.2500000
O    shel    0.7500000    0.0000000    0.2500000
O    core    0.7500000    0.0000000    0.7500000
O    shel    0.7500000    0.0000000    0.7500000
O    core    0.7500000    0.5000000    0.2500000
O    shel    0.7500000    0.5000000    0.2500000
O    core    0.7500000    0.5000000    0.7500000
O    shel    0.7500000    0.5000000    0.7500000
species   6                                                                          
Sr     core    2.000000                                                              
La     core    3.000000                                                              
Co     core    3.000000                                                              
O      core    0.869020                                                              
O      shel   -2.869020                                                              
buck                                                                                 
Co    core O     shel     684.900000 0.337200    0.00000  0.000 12.000               
buck                                                                                 
La    core O     shel    1439.700000 0.365100    0.00000  0.000 12.000               
buck                                                                                 
O     shel O     shel   22764.000000 0.149000   27.87900  0.000 12.000               
buck                                                                                 
Sr    core O     shel    1956.702000 0.325200    0.00000  0.000 12.000               
spring                                                                               
O        74.920000                                                                   
cuts 0.800000                                                                        
                                                                                     
output xtl c0001   
output arc c0001   
